instances/knapsack/discrete/knapsack_100_10.kp
35168
100
510

71 7.1 17
43 4.3 2
5 0.5 75
46 4.6 19
55 5.5 37
37 3.7 4
36 3.6 81
95 9.5 43
100 10.0 70
33 3.3 34
27 2.7 90
94 9.4 74
39 3.9 14
63 6.3 5
36 3.6 50
72 7.2 3
76 7.6 93
3 0.3 1
88 8.8 22
57 5.7 97
72 7.2 21
99 9.9 42
3 0.3 83
74 7.4 71
72 7.2 44
59 5.9 54
81 8.1 55
23 2.3 95
1 0.1 29
6 0.6 20
13 1.3 36
67 6.7 51
87 8.7 51
60 6.0 10
39 3.9 7
80 8.0 12
35 3.5 28
44 4.4 26
3 0.3 14
6 0.6 27
58 5.8 79
85 8.5 17
57 5.7 97
45 4.5 6
22 2.2 66
18 1.8 78
25 2.5 88
37 3.7 20
34 3.4 88
71 7.1 65
62 6.2 98
59 5.9 10
88 8.8 98
79 7.9 92
80 8.0 27
99 9.9 73
96 9.6 86
2 0.2 71
99 9.9 75
57 5.7 30
52 5.2 11
90 9.0 37
23 2.3 97
50 5.0 73
7 0.7 54
83 8.3 48
84 8.4 80
34 3.4 61
95 9.5 12
97 9.7 29
85 8.5 8
53 5.3 54
57 5.7 48
82 8.2 97
95 9.5 78
80 8.0 93
54 5.4 41
78 7.8 88
60 6.0 7
30 3.0 67
53 5.3 62
33 3.3 89
54 5.4 93
53 5.3 41
25 2.5 36
49 4.9 28
75 7.5 73
99 9.9 50
41 4.1 27
14 1.4 18
32 3.2 49
16 1.6 29
56 5.6 93
39 3.9 64
67 6.7 15
64 6.4 42
44 4.4 8
40 4.0 55
7 0.7 64
35 3.5 4

7146
508

[4.54 0.08 2.33 0.61 0.68 1.09 2.97 1.28 2.79 4.31 2.69 2.27 2.63 0.2 0.45 4.31 2.71 4.93 1.32 4.85 3.65 2.69 4.48 2.18 1.47 1.99 1.42 2.3 3.78 4.54 3.62 1.46 0.57 1.76 4.22 4.76 0.75 1.07 0.45 0.67 3.76 4.73 0.38 3.47 2.02 3.81 0.53 0.8 4.61 3.99 1.05 4.42 0.72 3.6 0.57 0.66 0.67 3.0 4.73 1.1 3.1 3.66 0.04 2.65 3.54 1.98 1.26 4.24 0.17 2.73 4.38 2.64 3.02 0.22 4.84 0.66 4.07 3.97 0.5 1.65 3.15 4.54 1.02 3.28 1.74 0.99 1.81 3.83 0.86 2.62 1.72 4.87 3.63 0.99 3.7 0.77 5.03 2.63 2.43 3.22]

[64 44 74 47 92 70 81 72 61 26 40 71 36 96 89 49 73 88 89 6 53 96 76 95 29 76 94 48 98 47 82 64 64 5 48 45 88 85 84 31 43 98 22 86 75 35 2 94 3 48 51 100 89 28 93 28 21 87 64 54 41 47 52 11 96 4 61 15 28 22 26 94 74 3 12 73 99 31 25 3 2 50 51 94 86 50 64 4 6 79 25 1 13 68 4 13 97 45 64 4]
