instances/knapsack/discrete/knapsack_100_10.lp
\ Model knapsack_100_10
\ LP format - for model browsing. Use MPS format to capture full model detail.
\ Signature: 0x98b4e0718ea0846a
Minimize
  - 4 x[0] - 5 x[1] - 90 x[2] - 14 x[3] - 92 x[4] - 79 x[5] - 80 x[6]
   - 46 x[7] - 77 x[8] - 33 x[9] - 73 x[10] - 89 x[11] - 65 x[12]
   - 28 x[13] - 93 x[14] - 86 x[15] - 20 x[16] - 16 x[17] - 13 x[18]
   - 92 x[19] - 92 x[20] - 33 x[21] - 58 x[22] - 86 x[23] - 55 x[24]
   - 85 x[25] - 38 x[26] - 18 x[27] - 88 x[28] - 91 x[29] - 71 x[30]
   - 46 x[31] - 2 x[32] - 69 x[33] - 50 x[34] - 83 x[35] - 39 x[36]
   - 37 x[37] - x[38] - 38 x[39] - 54 x[40] - 52 x[41] - 36 x[42]
   - 17 x[43] - x[44] - 21 x[45] - 11 x[46] - 91 x[47] - 35 x[48]
   - 76 x[49] - 61 x[50] - 5 x[51] - 37 x[52] - 11 x[53] - 74 x[54]
   - 72 x[55] - 61 x[56] - 50 x[57] - 94 x[58] - 5 x[59] - 18 x[60]
   - 16 x[61] - 32 x[62] - 48 x[63] - 85 x[64] - 15 x[65] - 35 x[66]
   - 72 x[67] - 19 x[68] - 60 x[69] - 67 x[70] - 29 x[71] - 31 x[72]
   - 56 x[73] - 37 x[74] - 20 x[75] - 92 x[76] - 71 x[77] - 2 x[78]
   - 98 x[79] - 33 x[80] - 68 x[81] - 44 x[82] - 88 x[83] - 27 x[84]
   - 79 x[85] - 64 x[86] - 41 x[87] - 86 x[88] - 13 x[89] - 56 x[90]
   - 64 x[91] - 96 x[92] - 91 x[93] - 78 x[94] - 57 x[95] - 43 x[96]
   - 18 x[97] - 35 x[98] - 31 x[99]
Subject To
 primal_upper: 74 x[0] + 42 x[1] + 12 x[2] + 81 x[3] + 86 x[4] + 32 x[5]
   + 47 x[6] + 22 x[7] + 11 x[8] + 96 x[9] + 66 x[10] + 81 x[11] + 18 x[12]
   + 38 x[13] + 51 x[14] + 11 x[15] + 67 x[16] + 6 x[17] + 99 x[18]
   + 28 x[19] + 75 x[20] + 62 x[21] + 66 x[22] + 81 x[23] + 79 x[24]
   + 10 x[25] + 8 x[26] + 62 x[27] + 72 x[28] + 5 x[29] + 100 x[30]
   + 38 x[31] + 70 x[32] + 87 x[33] + 14 x[34] + 35 x[35] + 98 x[36]
   + 19 x[37] + 86 x[38] + 57 x[39] + 65 x[40] + 12 x[41] + 72 x[42]
   + 20 x[43] + 73 x[44] + x[45] + 40 x[46] + 48 x[47] + 49 x[48]
   + 58 x[49] + 9 x[50] + 66 x[51] + 71 x[52] + 14 x[53] + 59 x[54]
   + 86 x[55] + 7 x[56] + 41 x[57] + 26 x[58] + 28 x[59] + 15 x[60]
   + 85 x[61] + 30 x[62] + 17 x[63] + 34 x[64] + 94 x[65] + 51 x[66]
   + 73 x[67] + 78 x[68] + 76 x[69] + 48 x[70] + 68 x[71] + 88 x[72]
   + 13 x[73] + 86 x[74] + 95 x[75] + 69 x[76] + 81 x[77] + 47 x[78]
   + 93 x[79] + 4 x[80] + 64 x[81] + 97 x[82] + 44 x[83] + 68 x[84]
   + 16 x[85] + 14 x[86] + 6 x[87] + 88 x[88] + 37 x[89] + 99 x[90]
   + 59 x[91] + 55 x[92] + 46 x[93] + 70 x[94] + 99 x[95] + 95 x[96]
   + 7 x[97] + 62 x[98] + 90 x[99] + 7.4 r[0] + 4.2 r[1] + 1.2 r[2]
   + 8.1 r[3] + 8.6 r[4] + 3.2 r[5] + 4.7 r[6] + 2.2 r[7] + 1.1 r[8]
   + 9.6 r[9] + 6.6 r[10] + 8.1 r[11] + 1.8 r[12] + 3.8 r[13] + 5.1 r[14]
   + 1.1 r[15] + 6.7 r[16] + 0.6 r[17] + 9.9 r[18] + 2.8 r[19] + 7.5 r[20]
   + 6.2 r[21] + 6.6 r[22] + 8.1 r[23] + 7.9 r[24] + r[25] + 0.8 r[26]
   + 6.2 r[27] + 7.2 r[28] + 0.5 r[29] + 10 r[30] + 3.8 r[31] + 7 r[32]
   + 8.7 r[33] + 1.4 r[34] + 3.5 r[35] + 9.8 r[36] + 1.9 r[37] + 8.6 r[38]
   + 5.7 r[39] + 6.5 r[40] + 1.2 r[41] + 7.2 r[42] + 2 r[43] + 7.3 r[44]
   + 0.1 r[45] + 4 r[46] + 4.8 r[47] + 4.9 r[48] + 5.8 r[49] + 0.9 r[50]
   + 6.6 r[51] + 7.1 r[52] + 1.4 r[53] + 5.9 r[54] + 8.6 r[55] + 0.7 r[56]
   + 4.1 r[57] + 2.6 r[58] + 2.8 r[59] + 1.5 r[60] + 8.5 r[61] + 3 r[62]
   + 1.7 r[63] + 3.4 r[64] + 9.4 r[65] + 5.1 r[66] + 7.3 r[67] + 7.8 r[68]
   + 7.6 r[69] + 4.8 r[70] + 6.8 r[71] + 8.8 r[72] + 1.3 r[73] + 8.6 r[74]
   + 9.5 r[75] + 6.9 r[76] + 8.1 r[77] + 4.7 r[78] + 9.3 r[79] + 0.4 r[80]
   + 6.4 r[81] + 9.7 r[82] + 4.4 r[83] + 6.8 r[84] + 1.6 r[85] + 1.4 r[86]
   + 0.6 r[87] + 8.8 r[88] + 3.7 r[89] + 9.9 r[90] + 5.9 r[91] + 5.5 r[92]
   + 4.6 r[93] + 7 r[94] + 9.9 r[95] + 9.5 r[96] + 0.7 r[97] + 6.2 r[98]
   + 9 r[99] <= 504
 primal_lower: 3.013462962893124 x[0] + 3.850753515392793 x[1]
   + 0.5257530771354579 x[2] + 4.834407300590088 x[3]
   + 2.949695866142507 x[4] + 4.867903539480847 x[5]
   + 0.0451727933480235 x[6] + 3.887760022220841 x[7]
   + 1.205329972827292 x[8] + 2.93637374245084 x[9]
   + 1.066945838895447 x[10] + 1.21340383050718 x[11]
   + 1.417951581824753 x[12] + 4.914162386693291 x[13]
   + 4.612941553287484 x[14] + 1.561347743083776 x[15]
   + 3.506116984381076 x[16] + 2.612573801590665 x[17]
   + 0.3216044972853591 x[18] + 2.349591103351545 x[19]
   + 1.545813322186633 x[20] + 2.915399061953492 x[21]
   + 4.428988797071225 x[22] + 4.558984005994685 x[23]
   + 0.667555060665847 x[24] + 1.652343103191736 x[25]
   + 4.823816989108789 x[26] + 3.525061270693046 x[27]
   + 4.255933717578994 x[28] + 2.168661448596047 x[29]
   + 4.851774138236709 x[30] + 0.069577310595662 x[31]
   + 1.592035261206238 x[32] + 0.5078540351142059 x[33]
   + 4.883335053441257 x[34] + 4.051943152678501 x[35]
   + 2.171775173436214 x[36] + 0.8906843009736435 x[37]
   + 3.072417495562564 x[38] + 3.438805202848767 x[39]
   + 2.95828127055075 x[40] + 3.126518084194942 x[41]
   + 1.518196498180955 x[42] + 4.198205477673156 x[43]
   + 0.3808086352828885 x[44] + 3.787246428309178 x[45]
   + 1.850517976376274 x[46] + 1.832376165330802 x[47]
   + 3.239467335433515 x[48] + 2.344757062250497 x[49]
   + 3.539563926949409 x[50] + 2.286186931331248 x[51]
   + 1.337068624253786 x[52] + 2.192998663731324 x[53]
   + 0.6458440090481251 x[54] + 2.560389118345114 x[55]
   + 4.587206289336131 x[56] + 1.346985930031038 x[57]
   + 1.712580497633891 x[58] + 1.522654932388963 x[59]
   + 0.2092217787706278 x[60] + 0.9377338521678996 x[61]
   + 0.3968772822864273 x[62] + 4.367600481875963 x[63]
   + 1.443606241984104 x[64] + 2.634846019512709 x[65]
   + 0.1646555443619503 x[66] + 0.7917147562979479 x[67]
   + 4.761001983317303 x[68] + 1.98415468357261 x[69]
   + 3.784560577415763 x[70] + 4.6487350330637 x[71]
   + 1.264694412074925 x[72] + 4.936558797910531 x[73]
   + 1.692567477669603 x[74] + 1.30567948548657 x[75]
   + 4.252169527689642 x[76] + 1.033554691841683 x[77]
   + 2.867597080676995 x[78] + 0.6334793151909217 x[79]
   + 1.596131636482728 x[80] + 3.174298325237248 x[81]
   + 1.979597732962082 x[82] + 3.247807332338005 x[83]
   + 3.192849972780646 x[84] + 2.063464498930166 x[85]
   + 4.632260128814699 x[86] + 2.916007892201897 x[87]
   + 1.191608489048732 x[88] + 3.722750554967097 x[89]
   + 4.065465904764376 x[90] + 3.133082380074253 x[91]
   + 2.897600342124292 x[92] + 2.836066550168318 x[93]
   + 1.476930833398747 x[94] + 3.771759616940507 x[95]
   + 0.4885818777864339 x[96] + 1.40629442190441 x[97]
   + 4.68058200967879 x[98] + 1.779888175028946 x[99] + 80 u[0] + 17 u[1]
   + 11 u[2] + 68 u[3] + 21 u[4] + 18 u[5] + 58 u[6] + 36 u[7] + 78 u[8]
   + 35 u[9] + 92 u[10] + 68 u[11] + 69 u[12] + 73 u[13] + 93 u[14]
   + 5 u[15] + 98 u[16] + 41 u[17] + 54 u[18] + 55 u[19] + 74 u[20]
   + 44 u[21] + 37 u[22] + 7 u[23] + 13 u[24] + 61 u[25] + 23 u[26]
   + 92 u[27] + 22 u[28] + 12 u[29] + 42 u[30] + 96 u[31] + 24 u[32]
   + 66 u[33] + 13 u[34] + 18 u[35] + 29 u[36] + 53 u[37] + 49 u[38]
   + 83 u[39] + 60 u[40] + 34 u[41] + 39 u[42] + 34 u[43] + 8 u[44]
   + 3 u[45] + 90 u[46] + 94 u[47] + 8 u[48] + 9 u[49] + 95 u[50]
   + 65 u[51] + 86 u[52] + 77 u[53] + 41 u[54] + 44 u[55] + 86 u[56]
   + 27 u[57] + 25 u[58] + 3 u[59] + 57 u[60] + 99 u[61] + 32 u[62]
   + 71 u[63] + 80 u[64] + 69 u[65] + 97 u[66] + 51 u[67] + 73 u[68]
   + 86 u[69] + 14 u[70] + 26 u[71] + 95 u[72] + 52 u[73] + 84 u[74]
   + 57 u[75] + 23 u[76] + 92 u[77] + 89 u[78] + 27 u[79] + 22 u[80]
   + 22 u[81] + 63 u[82] + 38 u[83] + 86 u[84] + 18 u[85] + 100 u[86]
   + 45 u[87] + 51 u[88] + 60 u[89] + 93 u[90] + 21 u[91] + 65 u[92]
   + 92 u[93] + 89 u[94] + 70 u[95] + 42 u[96] + 17 u[97] + 85 u[98]
   + 57 u[99] <= 99655
 mccormick1[0]: - u[0] + r[0] <= 0
 mccormick1[1]: - u[1] + r[1] <= 0
 mccormick1[2]: - u[2] + r[2] <= 0
 mccormick1[3]: - u[3] + r[3] <= 0
 mccormick1[4]: - u[4] + r[4] <= 0
 mccormick1[5]: - u[5] + r[5] <= 0
 mccormick1[6]: - u[6] + r[6] <= 0
 mccormick1[7]: - u[7] + r[7] <= 0
 mccormick1[8]: - u[8] + r[8] <= 0
 mccormick1[9]: - u[9] + r[9] <= 0
 mccormick1[10]: - u[10] + r[10] <= 0
 mccormick1[11]: - u[11] + r[11] <= 0
 mccormick1[12]: - u[12] + r[12] <= 0
 mccormick1[13]: - u[13] + r[13] <= 0
 mccormick1[14]: - u[14] + r[14] <= 0
 mccormick1[15]: - u[15] + r[15] <= 0
 mccormick1[16]: - u[16] + r[16] <= 0
 mccormick1[17]: - u[17] + r[17] <= 0
 mccormick1[18]: - u[18] + r[18] <= 0
 mccormick1[19]: - u[19] + r[19] <= 0
 mccormick1[20]: - u[20] + r[20] <= 0
 mccormick1[21]: - u[21] + r[21] <= 0
 mccormick1[22]: - u[22] + r[22] <= 0
 mccormick1[23]: - u[23] + r[23] <= 0
 mccormick1[24]: - u[24] + r[24] <= 0
 mccormick1[25]: - u[25] + r[25] <= 0
 mccormick1[26]: - u[26] + r[26] <= 0
 mccormick1[27]: - u[27] + r[27] <= 0
 mccormick1[28]: - u[28] + r[28] <= 0
 mccormick1[29]: - u[29] + r[29] <= 0
 mccormick1[30]: - u[30] + r[30] <= 0
 mccormick1[31]: - u[31] + r[31] <= 0
 mccormick1[32]: - u[32] + r[32] <= 0
 mccormick1[33]: - u[33] + r[33] <= 0
 mccormick1[34]: - u[34] + r[34] <= 0
 mccormick1[35]: - u[35] + r[35] <= 0
 mccormick1[36]: - u[36] + r[36] <= 0
 mccormick1[37]: - u[37] + r[37] <= 0
 mccormick1[38]: - u[38] + r[38] <= 0
 mccormick1[39]: - u[39] + r[39] <= 0
 mccormick1[40]: - u[40] + r[40] <= 0
 mccormick1[41]: - u[41] + r[41] <= 0
 mccormick1[42]: - u[42] + r[42] <= 0
 mccormick1[43]: - u[43] + r[43] <= 0
 mccormick1[44]: - u[44] + r[44] <= 0
 mccormick1[45]: - u[45] + r[45] <= 0
 mccormick1[46]: - u[46] + r[46] <= 0
 mccormick1[47]: - u[47] + r[47] <= 0
 mccormick1[48]: - u[48] + r[48] <= 0
 mccormick1[49]: - u[49] + r[49] <= 0
 mccormick1[50]: - u[50] + r[50] <= 0
 mccormick1[51]: - u[51] + r[51] <= 0
 mccormick1[52]: - u[52] + r[52] <= 0
 mccormick1[53]: - u[53] + r[53] <= 0
 mccormick1[54]: - u[54] + r[54] <= 0
 mccormick1[55]: - u[55] + r[55] <= 0
 mccormick1[56]: - u[56] + r[56] <= 0
 mccormick1[57]: - u[57] + r[57] <= 0
 mccormick1[58]: - u[58] + r[58] <= 0
 mccormick1[59]: - u[59] + r[59] <= 0
 mccormick1[60]: - u[60] + r[60] <= 0
 mccormick1[61]: - u[61] + r[61] <= 0
 mccormick1[62]: - u[62] + r[62] <= 0
 mccormick1[63]: - u[63] + r[63] <= 0
 mccormick1[64]: - u[64] + r[64] <= 0
 mccormick1[65]: - u[65] + r[65] <= 0
 mccormick1[66]: - u[66] + r[66] <= 0
 mccormick1[67]: - u[67] + r[67] <= 0
 mccormick1[68]: - u[68] + r[68] <= 0
 mccormick1[69]: - u[69] + r[69] <= 0
 mccormick1[70]: - u[70] + r[70] <= 0
 mccormick1[71]: - u[71] + r[71] <= 0
 mccormick1[72]: - u[72] + r[72] <= 0
 mccormick1[73]: - u[73] + r[73] <= 0
 mccormick1[74]: - u[74] + r[74] <= 0
 mccormick1[75]: - u[75] + r[75] <= 0
 mccormick1[76]: - u[76] + r[76] <= 0
 mccormick1[77]: - u[77] + r[77] <= 0
 mccormick1[78]: - u[78] + r[78] <= 0
 mccormick1[79]: - u[79] + r[79] <= 0
 mccormick1[80]: - u[80] + r[80] <= 0
 mccormick1[81]: - u[81] + r[81] <= 0
 mccormick1[82]: - u[82] + r[82] <= 0
 mccormick1[83]: - u[83] + r[83] <= 0
 mccormick1[84]: - u[84] + r[84] <= 0
 mccormick1[85]: - u[85] + r[85] <= 0
 mccormick1[86]: - u[86] + r[86] <= 0
 mccormick1[87]: - u[87] + r[87] <= 0
 mccormick1[88]: - u[88] + r[88] <= 0
 mccormick1[89]: - u[89] + r[89] <= 0
 mccormick1[90]: - u[90] + r[90] <= 0
 mccormick1[91]: - u[91] + r[91] <= 0
 mccormick1[92]: - u[92] + r[92] <= 0
 mccormick1[93]: - u[93] + r[93] <= 0
 mccormick1[94]: - u[94] + r[94] <= 0
 mccormick1[95]: - u[95] + r[95] <= 0
 mccormick1[96]: - u[96] + r[96] <= 0
 mccormick1[97]: - u[97] + r[97] <= 0
 mccormick1[98]: - u[98] + r[98] <= 0
 mccormick1[99]: - u[99] + r[99] <= 0
 mccormick2[0]: - x[0] + r[0] <= 0
 mccormick2[1]: - x[1] + r[1] <= 0
 mccormick2[2]: - x[2] + r[2] <= 0
 mccormick2[3]: - x[3] + r[3] <= 0
 mccormick2[4]: - x[4] + r[4] <= 0
 mccormick2[5]: - x[5] + r[5] <= 0
 mccormick2[6]: - x[6] + r[6] <= 0
 mccormick2[7]: - x[7] + r[7] <= 0
 mccormick2[8]: - x[8] + r[8] <= 0
 mccormick2[9]: - x[9] + r[9] <= 0
 mccormick2[10]: - x[10] + r[10] <= 0
 mccormick2[11]: - x[11] + r[11] <= 0
 mccormick2[12]: - x[12] + r[12] <= 0
 mccormick2[13]: - x[13] + r[13] <= 0
 mccormick2[14]: - x[14] + r[14] <= 0
 mccormick2[15]: - x[15] + r[15] <= 0
 mccormick2[16]: - x[16] + r[16] <= 0
 mccormick2[17]: - x[17] + r[17] <= 0
 mccormick2[18]: - x[18] + r[18] <= 0
 mccormick2[19]: - x[19] + r[19] <= 0
 mccormick2[20]: - x[20] + r[20] <= 0
 mccormick2[21]: - x[21] + r[21] <= 0
 mccormick2[22]: - x[22] + r[22] <= 0
 mccormick2[23]: - x[23] + r[23] <= 0
 mccormick2[24]: - x[24] + r[24] <= 0
 mccormick2[25]: - x[25] + r[25] <= 0
 mccormick2[26]: - x[26] + r[26] <= 0
 mccormick2[27]: - x[27] + r[27] <= 0
 mccormick2[28]: - x[28] + r[28] <= 0
 mccormick2[29]: - x[29] + r[29] <= 0
 mccormick2[30]: - x[30] + r[30] <= 0
 mccormick2[31]: - x[31] + r[31] <= 0
 mccormick2[32]: - x[32] + r[32] <= 0
 mccormick2[33]: - x[33] + r[33] <= 0
 mccormick2[34]: - x[34] + r[34] <= 0
 mccormick2[35]: - x[35] + r[35] <= 0
 mccormick2[36]: - x[36] + r[36] <= 0
 mccormick2[37]: - x[37] + r[37] <= 0
 mccormick2[38]: - x[38] + r[38] <= 0
 mccormick2[39]: - x[39] + r[39] <= 0
 mccormick2[40]: - x[40] + r[40] <= 0
 mccormick2[41]: - x[41] + r[41] <= 0
 mccormick2[42]: - x[42] + r[42] <= 0
 mccormick2[43]: - x[43] + r[43] <= 0
 mccormick2[44]: - x[44] + r[44] <= 0
 mccormick2[45]: - x[45] + r[45] <= 0
 mccormick2[46]: - x[46] + r[46] <= 0
 mccormick2[47]: - x[47] + r[47] <= 0
 mccormick2[48]: - x[48] + r[48] <= 0
 mccormick2[49]: - x[49] + r[49] <= 0
 mccormick2[50]: - x[50] + r[50] <= 0
 mccormick2[51]: - x[51] + r[51] <= 0
 mccormick2[52]: - x[52] + r[52] <= 0
 mccormick2[53]: - x[53] + r[53] <= 0
 mccormick2[54]: - x[54] + r[54] <= 0
 mccormick2[55]: - x[55] + r[55] <= 0
 mccormick2[56]: - x[56] + r[56] <= 0
 mccormick2[57]: - x[57] + r[57] <= 0
 mccormick2[58]: - x[58] + r[58] <= 0
 mccormick2[59]: - x[59] + r[59] <= 0
 mccormick2[60]: - x[60] + r[60] <= 0
 mccormick2[61]: - x[61] + r[61] <= 0
 mccormick2[62]: - x[62] + r[62] <= 0
 mccormick2[63]: - x[63] + r[63] <= 0
 mccormick2[64]: - x[64] + r[64] <= 0
 mccormick2[65]: - x[65] + r[65] <= 0
 mccormick2[66]: - x[66] + r[66] <= 0
 mccormick2[67]: - x[67] + r[67] <= 0
 mccormick2[68]: - x[68] + r[68] <= 0
 mccormick2[69]: - x[69] + r[69] <= 0
 mccormick2[70]: - x[70] + r[70] <= 0
 mccormick2[71]: - x[71] + r[71] <= 0
 mccormick2[72]: - x[72] + r[72] <= 0
 mccormick2[73]: - x[73] + r[73] <= 0
 mccormick2[74]: - x[74] + r[74] <= 0
 mccormick2[75]: - x[75] + r[75] <= 0
 mccormick2[76]: - x[76] + r[76] <= 0
 mccormick2[77]: - x[77] + r[77] <= 0
 mccormick2[78]: - x[78] + r[78] <= 0
 mccormick2[79]: - x[79] + r[79] <= 0
 mccormick2[80]: - x[80] + r[80] <= 0
 mccormick2[81]: - x[81] + r[81] <= 0
 mccormick2[82]: - x[82] + r[82] <= 0
 mccormick2[83]: - x[83] + r[83] <= 0
 mccormick2[84]: - x[84] + r[84] <= 0
 mccormick2[85]: - x[85] + r[85] <= 0
 mccormick2[86]: - x[86] + r[86] <= 0
 mccormick2[87]: - x[87] + r[87] <= 0
 mccormick2[88]: - x[88] + r[88] <= 0
 mccormick2[89]: - x[89] + r[89] <= 0
 mccormick2[90]: - x[90] + r[90] <= 0
 mccormick2[91]: - x[91] + r[91] <= 0
 mccormick2[92]: - x[92] + r[92] <= 0
 mccormick2[93]: - x[93] + r[93] <= 0
 mccormick2[94]: - x[94] + r[94] <= 0
 mccormick2[95]: - x[95] + r[95] <= 0
 mccormick2[96]: - x[96] + r[96] <= 0
 mccormick2[97]: - x[97] + r[97] <= 0
 mccormick2[98]: - x[98] + r[98] <= 0
 mccormick2[99]: - x[99] + r[99] <= 0
 mccormick3[0]: x[0] + u[0] - r[0] <= 1
 mccormick3[1]: x[1] + u[1] - r[1] <= 1
 mccormick3[2]: x[2] + u[2] - r[2] <= 1
 mccormick3[3]: x[3] + u[3] - r[3] <= 1
 mccormick3[4]: x[4] + u[4] - r[4] <= 1
 mccormick3[5]: x[5] + u[5] - r[5] <= 1
 mccormick3[6]: x[6] + u[6] - r[6] <= 1
 mccormick3[7]: x[7] + u[7] - r[7] <= 1
 mccormick3[8]: x[8] + u[8] - r[8] <= 1
 mccormick3[9]: x[9] + u[9] - r[9] <= 1
 mccormick3[10]: x[10] + u[10] - r[10] <= 1
 mccormick3[11]: x[11] + u[11] - r[11] <= 1
 mccormick3[12]: x[12] + u[12] - r[12] <= 1
 mccormick3[13]: x[13] + u[13] - r[13] <= 1
 mccormick3[14]: x[14] + u[14] - r[14] <= 1
 mccormick3[15]: x[15] + u[15] - r[15] <= 1
 mccormick3[16]: x[16] + u[16] - r[16] <= 1
 mccormick3[17]: x[17] + u[17] - r[17] <= 1
 mccormick3[18]: x[18] + u[18] - r[18] <= 1
 mccormick3[19]: x[19] + u[19] - r[19] <= 1
 mccormick3[20]: x[20] + u[20] - r[20] <= 1
 mccormick3[21]: x[21] + u[21] - r[21] <= 1
 mccormick3[22]: x[22] + u[22] - r[22] <= 1
 mccormick3[23]: x[23] + u[23] - r[23] <= 1
 mccormick3[24]: x[24] + u[24] - r[24] <= 1
 mccormick3[25]: x[25] + u[25] - r[25] <= 1
 mccormick3[26]: x[26] + u[26] - r[26] <= 1
 mccormick3[27]: x[27] + u[27] - r[27] <= 1
 mccormick3[28]: x[28] + u[28] - r[28] <= 1
 mccormick3[29]: x[29] + u[29] - r[29] <= 1
 mccormick3[30]: x[30] + u[30] - r[30] <= 1
 mccormick3[31]: x[31] + u[31] - r[31] <= 1
 mccormick3[32]: x[32] + u[32] - r[32] <= 1
 mccormick3[33]: x[33] + u[33] - r[33] <= 1
 mccormick3[34]: x[34] + u[34] - r[34] <= 1
 mccormick3[35]: x[35] + u[35] - r[35] <= 1
 mccormick3[36]: x[36] + u[36] - r[36] <= 1
 mccormick3[37]: x[37] + u[37] - r[37] <= 1
 mccormick3[38]: x[38] + u[38] - r[38] <= 1
 mccormick3[39]: x[39] + u[39] - r[39] <= 1
 mccormick3[40]: x[40] + u[40] - r[40] <= 1
 mccormick3[41]: x[41] + u[41] - r[41] <= 1
 mccormick3[42]: x[42] + u[42] - r[42] <= 1
 mccormick3[43]: x[43] + u[43] - r[43] <= 1
 mccormick3[44]: x[44] + u[44] - r[44] <= 1
 mccormick3[45]: x[45] + u[45] - r[45] <= 1
 mccormick3[46]: x[46] + u[46] - r[46] <= 1
 mccormick3[47]: x[47] + u[47] - r[47] <= 1
 mccormick3[48]: x[48] + u[48] - r[48] <= 1
 mccormick3[49]: x[49] + u[49] - r[49] <= 1
 mccormick3[50]: x[50] + u[50] - r[50] <= 1
 mccormick3[51]: x[51] + u[51] - r[51] <= 1
 mccormick3[52]: x[52] + u[52] - r[52] <= 1
 mccormick3[53]: x[53] + u[53] - r[53] <= 1
 mccormick3[54]: x[54] + u[54] - r[54] <= 1
 mccormick3[55]: x[55] + u[55] - r[55] <= 1
 mccormick3[56]: x[56] + u[56] - r[56] <= 1
 mccormick3[57]: x[57] + u[57] - r[57] <= 1
 mccormick3[58]: x[58] + u[58] - r[58] <= 1
 mccormick3[59]: x[59] + u[59] - r[59] <= 1
 mccormick3[60]: x[60] + u[60] - r[60] <= 1
 mccormick3[61]: x[61] + u[61] - r[61] <= 1
 mccormick3[62]: x[62] + u[62] - r[62] <= 1
 mccormick3[63]: x[63] + u[63] - r[63] <= 1
 mccormick3[64]: x[64] + u[64] - r[64] <= 1
 mccormick3[65]: x[65] + u[65] - r[65] <= 1
 mccormick3[66]: x[66] + u[66] - r[66] <= 1
 mccormick3[67]: x[67] + u[67] - r[67] <= 1
 mccormick3[68]: x[68] + u[68] - r[68] <= 1
 mccormick3[69]: x[69] + u[69] - r[69] <= 1
 mccormick3[70]: x[70] + u[70] - r[70] <= 1
 mccormick3[71]: x[71] + u[71] - r[71] <= 1
 mccormick3[72]: x[72] + u[72] - r[72] <= 1
 mccormick3[73]: x[73] + u[73] - r[73] <= 1
 mccormick3[74]: x[74] + u[74] - r[74] <= 1
 mccormick3[75]: x[75] + u[75] - r[75] <= 1
 mccormick3[76]: x[76] + u[76] - r[76] <= 1
 mccormick3[77]: x[77] + u[77] - r[77] <= 1
 mccormick3[78]: x[78] + u[78] - r[78] <= 1
 mccormick3[79]: x[79] + u[79] - r[79] <= 1
 mccormick3[80]: x[80] + u[80] - r[80] <= 1
 mccormick3[81]: x[81] + u[81] - r[81] <= 1
 mccormick3[82]: x[82] + u[82] - r[82] <= 1
 mccormick3[83]: x[83] + u[83] - r[83] <= 1
 mccormick3[84]: x[84] + u[84] - r[84] <= 1
 mccormick3[85]: x[85] + u[85] - r[85] <= 1
 mccormick3[86]: x[86] + u[86] - r[86] <= 1
 mccormick3[87]: x[87] + u[87] - r[87] <= 1
 mccormick3[88]: x[88] + u[88] - r[88] <= 1
 mccormick3[89]: x[89] + u[89] - r[89] <= 1
 mccormick3[90]: x[90] + u[90] - r[90] <= 1
 mccormick3[91]: x[91] + u[91] - r[91] <= 1
 mccormick3[92]: x[92] + u[92] - r[92] <= 1
 mccormick3[93]: x[93] + u[93] - r[93] <= 1
 mccormick3[94]: x[94] + u[94] - r[94] <= 1
 mccormick3[95]: x[95] + u[95] - r[95] <= 1
 mccormick3[96]: x[96] + u[96] - r[96] <= 1
 mccormick3[97]: x[97] + u[97] - r[97] <= 1
 mccormick3[98]: x[98] + u[98] - r[98] <= 1
 mccormick3[99]: x[99] + u[99] - r[99] <= 1
Bounds
Binaries
 x[0] x[1] x[2] x[3] x[4] x[5] x[6] x[7] x[8] x[9] x[10] x[11] x[12] x[13]
 x[14] x[15] x[16] x[17] x[18] x[19] x[20] x[21] x[22] x[23] x[24] x[25]
 x[26] x[27] x[28] x[29] x[30] x[31] x[32] x[33] x[34] x[35] x[36] x[37]
 x[38] x[39] x[40] x[41] x[42] x[43] x[44] x[45] x[46] x[47] x[48] x[49]
 x[50] x[51] x[52] x[53] x[54] x[55] x[56] x[57] x[58] x[59] x[60] x[61]
 x[62] x[63] x[64] x[65] x[66] x[67] x[68] x[69] x[70] x[71] x[72] x[73]
 x[74] x[75] x[76] x[77] x[78] x[79] x[80] x[81] x[82] x[83] x[84] x[85]
 x[86] x[87] x[88] x[89] x[90] x[91] x[92] x[93] x[94] x[95] x[96] x[97]
 x[98] x[99] u[0] u[1] u[2] u[3] u[4] u[5] u[6] u[7] u[8] u[9] u[10] u[11]
 u[12] u[13] u[14] u[15] u[16] u[17] u[18] u[19] u[20] u[21] u[22] u[23]
 u[24] u[25] u[26] u[27] u[28] u[29] u[30] u[31] u[32] u[33] u[34] u[35]
 u[36] u[37] u[38] u[39] u[40] u[41] u[42] u[43] u[44] u[45] u[46] u[47]
 u[48] u[49] u[50] u[51] u[52] u[53] u[54] u[55] u[56] u[57] u[58] u[59]
 u[60] u[61] u[62] u[63] u[64] u[65] u[66] u[67] u[68] u[69] u[70] u[71]
 u[72] u[73] u[74] u[75] u[76] u[77] u[78] u[79] u[80] u[81] u[82] u[83]
 u[84] u[85] u[86] u[87] u[88] u[89] u[90] u[91] u[92] u[93] u[94] u[95]
 u[96] u[97] u[98] u[99] r[0] r[1] r[2] r[3] r[4] r[5] r[6] r[7] r[8] r[9]
 r[10] r[11] r[12] r[13] r[14] r[15] r[16] r[17] r[18] r[19] r[20] r[21]
 r[22] r[23] r[24] r[25] r[26] r[27] r[28] r[29] r[30] r[31] r[32] r[33]
 r[34] r[35] r[36] r[37] r[38] r[39] r[40] r[41] r[42] r[43] r[44] r[45]
 r[46] r[47] r[48] r[49] r[50] r[51] r[52] r[53] r[54] r[55] r[56] r[57]
 r[58] r[59] r[60] r[61] r[62] r[63] r[64] r[65] r[66] r[67] r[68] r[69]
 r[70] r[71] r[72] r[73] r[74] r[75] r[76] r[77] r[78] r[79] r[80] r[81]
 r[82] r[83] r[84] r[85] r[86] r[87] r[88] r[89] r[90] r[91] r[92] r[93]
 r[94] r[95] r[96] r[97] r[98] r[99]
End
